Version identifier: 12.10.0.0 | 2019-11-26 | 843d4de
CPXPARAM_WorkMem                                 28672
Tried aggregator 2 times.
MIP Presolve eliminated 24 rows and 0 columns.
MIP Presolve added 48 rows and 0 columns.
Aggregator did 60 substitutions.
Reduced MIP has 126 rows, 110 columns, and 502 nonzeros.
Reduced MIP has 110 binaries, 0 generals, 0 SOSs, and 0 indicators.
Presolve time = 0,00 sec. (1,12 ticks)
Found incumbent of value 483,000000 after 0,00 sec. (1,27 ticks)
Probing fixed 4 vars, tightened 0 bounds.
Probing time = 0,00 sec. (0,84 ticks)
Tried aggregator 1 time.
Detecting symmetries...
MIP Presolve eliminated 4 rows and 4 columns.
Reduced MIP has 122 rows, 106 columns, and 478 nonzeros.
Reduced MIP has 106 binaries, 0 generals, 0 SOSs, and 0 indicators.
Presolve time = 0,00 sec. (0,44 ticks)
Probing time = 0,00 sec. (0,76 ticks)
Clique table members: 396.
MIP emphasis: balance optimality and feasibility.
MIP search method: dynamic search.
Parallel mode: deterministic, using up to 16 threads.
Root relaxation solution time = 0,00 sec. (0,30 ticks)

        Nodes                                         Cuts/
   Node  Left     Objective  IInf  Best Integer    Best Bound    ItCnt     Gap

*     0+    0                          483,0000       32,0000            93,37%
*     0+    0                          463,0000       32,0000            93,09%
      0     0      280,0000   106      463,0000      280,0000       48   39,52%
*     0+    0                          433,0000      280,0000            35,33%
      0     0      343,2411   106      433,0000     Cuts: 130      139   20,73%
      0     0      355,7051   106      433,0000      Cuts: 84      173   17,85%
      0     0      360,3064   106      433,0000      Cuts: 73      211   16,79%
      0     0      360,9164   106      433,0000      Cuts: 20      219   16,65%
      0     0      361,5504   106      433,0000      Cuts: 27      241   16,50%
Detecting symmetries...
      0     0      361,7358   106      433,0000   ZeroHalf: 6      262   16,46%
      0     0      361,9640   106      433,0000      Cuts: 36      287   16,41%
      0     0      362,3684   106      433,0000      Cuts: 35      314   16,31%
      0     0      362,6124   106      433,0000      Cuts: 25      338   16,26%
      0     0      362,8843   106      433,0000      Cuts: 45      353   16,19%
      0     0      363,0203   106      433,0000      Cuts: 21      374   16,16%
      0     0      363,2497   106      433,0000      Cuts: 39      389   16,11%
      0     0      363,3750   106      433,0000      Cuts: 33      411   16,08%
      0     0      363,5539   106      433,0000      Cuts: 29      423   16,04%
      0     0      363,8769   106      433,0000      Cuts: 55      450   15,96%
      0     0      363,9298   106      433,0000      Cuts: 16      467   15,95%
      0     0      363,9759   106      433,0000      Cuts: 17      475   15,94%
      0     0        cutoff            433,0000      433,0000      475    0,00%
Elapsed time = 0,07 sec. (54,27 ticks, tree = 0,01 MB, solutions = 3)

Clique cuts applied:  5
Cover cuts applied:  2
Implied bound cuts applied:  31
Flow cuts applied:  1
Mixed integer rounding cuts applied:  2
Zero-half cuts applied:  24
Gomory fractional cuts applied:  7

Root node processing (before b&c):
  Real time             =    0,07 sec. (54,29 ticks)
Parallel b&c, 16 threads:
  Real time             =    0,00 sec. (0,00 ticks)
  Sync time (average)   =    0,00 sec.
  Wait time (average)   =    0,00 sec.
                          ------------
Total (root+branch&cut) =    0,07 sec. (54,29 ticks)
